p tdp 20 54
1 4
1 6
1 8
1 12
1 19
2 4
2 5
2 11
2 19
3 4
3 7
3 10
3 17
4 9
4 11
4 14
4 15
4 16
5 6
5 7
5 15
5 16
5 17
6 9
6 10
6 13
6 17
6 19
6 20
7 15
7 16
8 9
8 14
8 18
9 15
9 16
10 11
10 13
10 14
10 15
10 16
10 17
10 19
10 20
12 13
12 19
13 19
14 18
14 19
15 17
15 19
15 20
17 19
18 20
